p cnf 100 120
32 18 -38 0
-48 79 -31 0
52 28 -72 0
-16 31 -33 0
-56 -23 -93 0
96 22 44 0
82 91 86 0
41 -52 53 0
89 93 66 0
51 26 -22 0
-90 21 -46 0
-5 39 6 0
2 31 -71 0
7 41 64 0
5 42 10 0
-27 -19 96 0
-25 -51 -93 0
-72 -69 30 0
2 -92 -18 0
-74 65 -82 0
-62 -55 15 0
52 30 -91 0
-39 13 -56 0
49 -55 -38 0
-5 71 59 0
-93 9 33 0
67 38 95 0
6 9 40 0
-26 43 -81 0
-56 48 -13 0
88 -53 -72 0
80 -15 -22 0
-1 -14 -50 0
46 43 36 0
-49 -55 3 0
65 28 -24 0
-9 -49 -96 0
40 -60 -68 0
-74 52 -2 0
95 -71 -35 0
84 -8 46 0
-35 23 -78 0
-53 84 -6 0
42 -56 -60 0
-3 66 -1 0
19 28 -29 0
70 85 -75 0
-3 -69 86 0
-88 12 -2 0
-89 3 -21 0
96 -21 -95 0
-95 2 -5 0
-4 -55 57 0
-23 26 -21 0
92 -34 -59 0
-57 -9 74 0
-63 -59 -80 0
-37 1 -31 0
-95 -25 60 0
-24 26 58 0
44 22 30 0
-29 75 -81 0
28 -57 -24 0
31 15 -54 0
99 -33 68 0
96 6 -63 0
-98 71 9 0
-23 -25 55 0
-29 84 -60 0
-81 -68 8 0
99 -68 -50 0
-93 77 -42 0
-47 -63 -100 0
-28 -71 -27 0
37 -51 46 0
-95 -18 -52 0
21 -24 14 0
80 55 2 0
-88 -16 31 0
-73 -76 -13 0
-21 -73 86 0
63 62 -92 0
85 34 -50 0
-15 86 16 0
-80 84 58 0
33 -93 -11 0
-96 -9 -95 0
-13 -16 -8 0
-26 -54 71 0
28 46 -74 0
45 91 -93 0
-43 58 99 0
-68 87 -60 0
-46 -60 -50 0
68 59 22 0
-80 -60 91 0
-73 92 -96 0
-34 86 17 0
86 -23 44 0
25 98 7 0
x 1 -6 -10 11 12 14 -15 -16 -21 22 23 -24 -28 -29 34 -35 36 -39 -42 -43 46 -51 -54 58 59 60 -61 62 64 66 70 -71 -73 -74 75 -76 -79 80 82 -83 -84 86 87 89 91 -97 -98 100 0
x 4 -6 15 -17 -18 -19 -24 -25 26 29 -33 -35 -36 -37 38 -39 40 44 -45 47 48 -49 -50 51 -53 55 -57 59 61 63 -64 66 -67 -68 71 72 -74 -76 77 78 85 -88 89 91 -93 97 -99 -100 0
x 2 -4 5 6 -11 12 13 14 16 17 -22 -23 -25 -33 34 -36 -37 39 40 -43 -44 -45 -47 -48 49 -51 -54 58 -64 -65 66 68 -69 -72 -73 -74 78 79 -82 83 89 94 99 -100 0
x -1 -4 -5 8 9 10 -11 12 -14 15 16 17 23 26 28 -29 -30 31 33 -34 -35 36 -37 38 -39 42 43 -48 50 51 52 -54 55 -58 -60 61 62 63 -65 67 -68 -70 -71 -74 76 80 81 -82 -85 89 93 -94 95 98 -99 -100 0
x 1 -3 -8 10 13 15 17 -19 -21 24 -25 -30 31 34 -36 37 -38 41 -42 -43 45 47 -48 -51 52 53 56 58 59 62 65 70 72 74 75 -76 -78 -90 -92 94 -96 97 0
x 3 4 5 7 11 -12 -13 14 17 -18 -21 -22 -25 -26 -28 29 30 32 -33 -34 41 -42 43 44 45 -46 -49 -51 -54 55 57 -58 -60 61 -64 -65 69 70 71 73 -74 -76 77 -78 -79 -80 84 -85 -87 88 89 -90 91 -93 98 99 100 0
x 2 -3 5 -12 -14 19 -20 22 -24 26 29 31 32 34 -35 -41 43 48 49 -50 51 52 53 -58 -61 62 66 70 -71 -72 75 76 77 -78 -80 -81 -82 -83 -85 89 -90 91 -92 94 -97 -98 100 0
x -1 3 -7 -10 11 12 14 15 17 19 -22 -23 26 28 -29 -30 -31 -32 -33 35 36 -37 38 39 40 -41 -42 44 -49 -50 52 -54 56 -60 61 -62 64 65 67 72 73 74 -75 -77 -78 79 80 -82 -85 -88 -89 93 -94 -95 -98 100 0
x -2 -6 7 -9 11 -15 16 -22 -23 26 27 28 30 -37 41 43 44 47 51 54 55 60 61 63 64 -73 77 80 -82 -86 -87 -88 -90 -92 -93 94 95 -97 -98 -99 0
x -1 2 4 -5 7 9 10 12 13 14 -15 -19 20 21 22 23 -24 26 -27 -28 29 -31 -33 -36 -39 -42 -43 -45 47 -51 -52 57 -59 63 64 -68 -69 -72 -74 -75 78 80 -81 -84 -85 -86 89 90 93 98 99 0
x -1 -2 5 -6 8 -9 16 17 -18 20 -23 -24 -27 -29 -30 31 32 -34 35 -36 -38 39 40 41 45 48 -51 52 55 -56 57 -59 61 -62 64 65 66 73 74 77 -78 81 -83 -85 -99 100 0
x -3 -4 -5 6 8 -11 -13 -15 16 -18 19 -22 -25 -27 29 -31 -32 -33 34 35 -38 -39 40 42 -43 -44 -47 49 50 54 64 -65 66 -67 -68 -69 72 -75 76 -77 -78 -82 -83 -84 85 86 87 91 92 93 94 96 98 0
x 1 2 -3 4 6 8 -9 10 16 -17 19 22 23 24 25 29 32 33 -34 -35 -40 -44 46 48 -49 -53 54 55 -57 -58 -61 63 -65 66 68 69 70 73 -76 77 78 81 84 -85 87 88 -92 -95 -96 98 100 0
x -1 3 7 -11 -13 -14 15 -19 20 21 -22 23 24 26 -27 31 33 34 -38 -39 40 -42 -43 -45 48 53 -55 -56 -61 -63 65 66 -67 -68 -69 -72 -75 -76 77 78 -80 -81 -83 84 -85 87 -88 89 -90 93 -94 95 97 -99 -100 0
x -4 7 -8 -9 -10 12 -17 -18 21 -24 -26 -27 31 32 35 -36 37 -41 43 -47 -48 49 51 52 -53 54 55 56 57 -61 -62 63 -64 65 -66 -68 -69 70 72 73 -74 -75 77 -80 81 83 85 87 -88 -89 -90 -92 93 97 98 0
x -1 6 7 -8 -11 15 -16 -17 -20 21 -23 -25 -26 27 31 -32 -35 37 -39 -43 -44 -48 49 -51 -52 53 -54 55 57 -62 63 -64 66 69 -71 72 -73 74 -77 -79 -82 84 -85 -86 88 -91 94 95 98 100 0
x 2 5 6 9 11 -13 -17 19 20 22 -24 -28 32 34 -35 -36 -37 39 40 -42 -43 -51 52 -54 57 -58 59 -61 -62 -63 66 68 -72 73 -77 -82 84 85 -86 88 -89 -90 93 -94 -97 99 0
x 1 -3 -4 -5 6 8 -9 -13 14 18 -22 23 -28 -30 32 -34 38 -39 -40 41 42 -43 45 50 51 -52 -53 -56 -59 62 63 -65 67 71 -74 -76 80 86 -87 88 -90 96 -98 0
x 1 -2 -5 7 9 -13 -15 -18 -21 -22 25 -28 -29 -30 -32 -35 -36 39 42 44 -45 49 -50 -52 53 54 -56 62 63 65 -67 69 -72 -74 75 77 78 -79 -80 -81 -83 -84 -87 -88 90 -91 -92 95 96 -97 -98 -100 0
x 1 -3 4 -7 8 10 11 -15 16 -18 19 20 22 -25 28 -29 -31 35 -36 41 -43 44 46 47 48 -49 -51 -52 -54 56 57 58 59 60 63 64 66 -67 -69 -70 -71 -72 -73 -75 -79 81 82 -84 85 91 93 -94 95 -98 0
